\ Model DR_LP
\ LP format - for model browsing. Use MPS format to capture full model detail.
Maximize
  v
Subject To
 c1: 1e+06 x[0,0] - 500 x[0,2] - x[0,3] + 1e+06 x[1,0] - 1000 x[1,2]
   - x[1,3] + 1e+06 x[2,0] - 500 x[2,2] - x[2,3] + 1e+06 x[3,0]
   - 1000 x[3,2] - x[3,3] + 1e+06 x[4,0] + 1e+06 x[4,2] - x[4,3]
   + 1e+06 x[5,0] + 1e+06 x[5,2] - x[5,3] + 1e+06 x[6,0] - 500 x[6,2]
   - x[6,3] + 1e+06 x[7,0] - 1000 x[7,2] - x[7,3] + 1e+06 x[8,0]
   + 1e+06 x[8,2] - x[8,3] + 1e+06 x[9,0] + 1e+06 x[9,2] - x[9,3]
   + 1e+06 x[10,0] + 1e+06 x[10,2] - x[10,3] + 1e+06 x[11,0]
   + 1e+06 x[11,2] - x[11,3] + v = 0
 c3[0]: x[0,0] + 0.5025 x[0,1] + 0.75125 x[0,2] + 0.5025 x[0,3]
   - 0.4975 x[1,1] - 0.0995 x[1,2] - 0.4975 x[1,3] - 0.0995 x[2,1]
   - 0.0718611111111111 x[2,2] - 0.0995 x[2,3] - 0.0995 x[3,1]
   - 0.0199 x[3,2] - 0.0995 x[3,3] - 0.0199 x[4,1] - 0.0199 x[4,3]
   - 0.0199 x[5,1] - 0.0199 x[5,3] - 0.24875 x[6,1] - 0.124375 x[6,2]
   - 0.24875 x[6,3] - 0.24875 x[7,1] - 0.0718611111111111 x[7,2]
   - 0.24875 x[7,3] - 0.0718611111111111 x[8,1] - 0.0718611111111111 x[8,3]
   - 0.0718611111111111 x[9,1] - 0.0718611111111111 x[9,3]
   - 0.124375 x[10,1] - 0.124375 x[10,3] - 0.124375 x[11,1]
   - 0.124375 x[11,3] = 1
 c3[1]: - 0.4975 x[0,1] - 0.24875 x[0,2] - 0.4975 x[0,3] + x[1,0]
   + 0.5025 x[1,1] + 0.9005 x[1,2] + 0.5025 x[1,3] - 0.0995 x[2,1]
   - 0.0718611111111111 x[2,2] - 0.0995 x[2,3] - 0.0995 x[3,1]
   - 0.0199 x[3,2] - 0.0995 x[3,3] - 0.0199 x[4,1] - 0.0199 x[4,3]
   - 0.0199 x[5,1] - 0.0199 x[5,3] - 0.24875 x[6,1] - 0.124375 x[6,2]
   - 0.24875 x[6,3] - 0.24875 x[7,1] - 0.0718611111111111 x[7,2]
   - 0.24875 x[7,3] - 0.0718611111111111 x[8,1] - 0.0718611111111111 x[8,3]
   - 0.0718611111111111 x[9,1] - 0.0718611111111111 x[9,3]
   - 0.124375 x[10,1] - 0.124375 x[10,3] - 0.124375 x[11,1]
   - 0.124375 x[11,3] = 0
 c3[2]: - 0.398 x[1,2] + x[2,0] + 0.602 x[2,1] + 0.8231111111111111 x[2,2]
   + 0.602 x[2,3] - 0.398 x[3,1] - 0.0796 x[3,2] - 0.398 x[3,3]
   - 0.0796 x[4,1] - 0.0796 x[4,3] - 0.0796 x[5,1] - 0.0796 x[5,3]
   - 0.1768888888888889 x[7,2] - 0.1768888888888889 x[8,1]
   - 0.1768888888888889 x[8,3] - 0.1768888888888889 x[9,1]
   - 0.1768888888888889 x[9,3] = 0
 c3[3]: - 0.398 x[1,2] - 0.398 x[2,1] - 0.1768888888888889 x[2,2]
   - 0.398 x[2,3] + x[3,0] + 0.602 x[3,1] + 0.9204 x[3,2] + 0.602 x[3,3]
   - 0.0796 x[4,1] - 0.0796 x[4,3] - 0.0796 x[5,1] - 0.0796 x[5,3]
   - 0.1768888888888889 x[7,2] - 0.1768888888888889 x[8,1]
   - 0.1768888888888889 x[8,3] - 0.1768888888888889 x[9,1]
   - 0.1768888888888889 x[9,3] = 0
 c3[4]: - 0.398 x[3,2] + x[4,0] + 0.602 x[4,1] + x[4,2] + 0.602 x[4,3]
   - 0.398 x[5,1] - 0.398 x[5,3] = 0
 c3[5]: - 0.398 x[3,2] - 0.398 x[4,1] - 0.398 x[4,3] + x[5,0]
   + 0.602 x[5,1] + x[5,2] + 0.602 x[5,3] = 0
 c3[6]: - 0.24875 x[0,2] - 0.0276388888888889 x[2,2] + x[6,0]
   + 0.75125 x[6,1] + 0.875625 x[6,2] + 0.75125 x[6,3] - 0.24875 x[7,1]
   - 0.0276388888888889 x[7,2] - 0.24875 x[7,3] - 0.0276388888888889 x[8,1]
   - 0.0276388888888889 x[8,3] - 0.0276388888888889 x[9,1]
   - 0.0276388888888889 x[9,3] - 0.124375 x[10,1] - 0.124375 x[10,3]
   - 0.124375 x[11,1] - 0.124375 x[11,3] = 0
 c3[7]: - 0.24875 x[0,2] - 0.0276388888888889 x[2,2] - 0.24875 x[6,1]
   - 0.124375 x[6,2] - 0.24875 x[6,3] + x[7,0] + 0.75125 x[7,1]
   + 0.9723611111111111 x[7,2] + 0.75125 x[7,3] - 0.0276388888888889 x[8,1]
   - 0.0276388888888889 x[8,3] - 0.0276388888888889 x[9,1]
   - 0.0276388888888889 x[9,3] - 0.124375 x[10,1] - 0.124375 x[10,3]
   - 0.124375 x[11,1] - 0.124375 x[11,3] = 0
 c3[8]: - 0.2211111111111111 x[2,2] - 0.2211111111111111 x[7,2] + x[8,0]
   + 0.778888888888889 x[8,1] + x[8,2] + 0.778888888888889 x[8,3]
   - 0.2211111111111111 x[9,1] - 0.2211111111111111 x[9,3] = 0
 c3[9]: - 0.2211111111111111 x[2,2] - 0.2211111111111111 x[7,2]
   - 0.2211111111111111 x[8,1] - 0.2211111111111111 x[8,3] + x[9,0]
   + 0.778888888888889 x[9,1] + x[9,2] + 0.778888888888889 x[9,3] = 0
 c3[10]: - 0.24875 x[6,2] + x[10,0] + 0.75125 x[10,1] + x[10,2]
   + 0.75125 x[10,3] - 0.24875 x[11,1] - 0.24875 x[11,3] = 0
 c3[11]: - 0.24875 x[6,2] - 0.24875 x[10,1] - 0.24875 x[10,3] + x[11,0]
   + 0.75125 x[11,1] + x[11,2] + 0.75125 x[11,3] = 0
Bounds
End
